22125
1 0 1 0 1 1 1 0 0 0 0 1 0 1 1 1 0 1 0 0 1 0 0 0 1 0 0 0 0 0 
6 0 6 2 6 5 0 15 6 17 4 20 20 20 0 14 14 17 5 11 2 0 4 0 4 20 2 24 5 5 5 11 6 11 20 20 24 15 0 14 0 14 15 6 15 14 0 20 11 14 4 2 14 24 6 20 17 0 0 17 0 17 13 0 11 11 5 0 4 4 6 6 11 17 15 20 5 20 2 5 20 0 6 17 2 17 2 4 20 5 2 15 2 0 11 5 2 6 4 6 6 17 17 11 2 11 4 11 14 14 14 2 2 11 11 4 24 15 17 15 17 6 11 20 6 4 5 5 11 4 17 4 15 4 20 14 4 5 20 17 17 14 13 14 14 11 11 5 2 17 